(set-logic QF_S)
(declare-fun var0 () String)
(declare-fun var1 () String)
(declare-fun var2 () String)
(declare-fun var3 () String)
(declare-fun var4 () String)
(declare-fun var5 () String)
(declare-fun var6 () String)
(declare-fun var7 () String)
(declare-fun var8 () String)
(declare-fun var9 () String)
(declare-fun var10 () String)
(declare-fun var11 () String)
(declare-fun var12 () String)
(declare-fun var13 () String)
(declare-fun var14 () String)
(declare-fun var15 () String)
(declare-fun var16 () String)
(declare-fun var17 () String)
(declare-fun var18 () String)
(declare-fun var19 () String)
(declare-fun var20 () String)
(declare-fun var21 () String)
(declare-fun var22 () String)
(declare-fun var23 () String)
(declare-fun var24 () String)
(declare-fun var25 () String)
(declare-fun var26 () String)
(declare-fun var27 () String)
(declare-fun var28 () String)
(declare-fun var29 () String)
(declare-fun var30 () String)
(declare-fun var31 () String)
(declare-fun var32 () String)
(declare-fun var33 () String)
(declare-fun var34 () String)
(declare-fun var35 () String)
(declare-fun var36 () String)
(declare-fun var37 () String)
(declare-fun var38 () String)
(declare-fun var39 () String)
(declare-fun var40 () String)
(declare-fun var41 () String)
(declare-fun var42 () String)
(declare-fun var43 () String)
(declare-fun var44 () String)
(declare-fun var45 () String)
(declare-fun var46 () String)
(declare-fun var47 () String)
(declare-fun var48 () String)
(declare-fun var49 () String)
(declare-fun var50 () String)
(declare-fun var51 () String)
(declare-fun var52 () String)
(declare-fun var53 () String)
(declare-fun var54 () String)
(declare-fun var55 () String)
(declare-fun var56 () String)
(declare-fun var57 () String)
(declare-fun var58 () String)
(declare-fun var59 () String)
(declare-fun var60 () String)
(assert (= var0 (str.++ var1 var2)))
(assert (= var2 (str.++ var3 var4)))
(assert (= var4 (str.++ var5 var6)))
(assert (= var6 (str.++ var7 var8)))
(assert (= var8 (str.++ var9 var10)))
(assert (= var10 (str.++ var11 var12)))
(assert (= var12 (str.++ var13 var14)))
(assert (= var14 (str.++ var15 var16)))
(assert (= var16 (str.++ var17 var18)))
(assert (= var18 (str.++ var19 var20)))
(assert (= var20 (str.++ var21 var22)))
(assert (= var22 (str.++ var23 var24)))
(assert (= var24 (str.++ var25 var26)))
(assert (= var26 (str.++ var27 var28)))
(assert (= var28 (str.++ var29 var30)))
(assert (= var30 (str.++ var31 var32)))
(assert (= var32 (str.++ var33 var34)))
(assert (= var34 (str.++ var35 var36)))
(assert (= var36 (str.++ var37 var38)))
(assert (= var38 (str.++ var39 var40)))
(assert (= var40 (str.++ var41 var42)))
(assert (= var42 (str.++ var43 var44)))
(assert (= var44 (str.++ var45 var46)))
(assert (= var46 (str.++ var47 var48)))
(assert (= var48 (str.++ var49 var50)))
(assert (= var50 (str.++ var51 var52)))
(assert (= var52 (str.++ var53 var54)))
(assert (= var54 (str.++ var55 var56)))
(assert (= var56 (str.++ var57 var58)))
(assert (= var58 (str.++ var59 var60)))
(assert (= var0 "solution"))
(assert (= ">" (str.at var55 519)))
(assert (= "G" (str.at var43 110)))
(assert (= "o" (str.at var0 696)))
(assert (= "b" (str.at var51 804)))
(assert (= "X" (str.at var5 735)))
(assert (= "O" (str.at var53 73)))
(assert (= "." (str.at var23 302)))
(assert (= "E" (str.at var6 313)))
(assert (= "W" (str.at var49 827)))
(assert (= "|" (str.at var41 777)))
(assert (= "Z" (str.at var5 968)))
(assert (= "c" (str.at var27 468)))
(assert (= "2" (str.at var33 435)))
(assert (= "y" (str.at var32 424)))
(assert (= "F" (str.at var21 91)))
(assert (= "X" (str.at var28 107)))
(assert (= "E" (str.at var24 682)))
(assert (= "?" (str.at var51 353)))
(assert (= "\\" (str.at var22 738)))
(assert (= "R" (str.at var21 74)))
(assert (= "!" (str.at var51 942)))
(assert (= "6" (str.at var12 679)))
(assert (= "]" (str.at var12 191)))
(assert (= "+" (str.at var0 852)))
(assert (= "B" (str.at var37 499)))
(assert (= "O" (str.at var38 172)))
(assert (= "y" (str.at var19 688)))
(assert (= "f" (str.at var34 992)))
(assert (= "@" (str.at var52 110)))
(assert (= ")" (str.at var55 414)))
(assert (= "d" (str.at var29 774)))
(assert (= "(" (str.at var50 2)))
(assert (= "N" (str.at var36 602)))
(assert (= """" (str.at var39 605)))
(assert (= "6" (str.at var59 99)))
(assert (= "5" (str.at var19 877)))
(assert (= "2" (str.at var17 6)))
(assert (= "n" (str.at var12 520)))
(assert (= "j" (str.at var37 912)))
(assert (= "7" (str.at var3 688)))
(assert (= "o" (str.at var36 512)))
(assert (= "S" (str.at var42 430)))
(assert (= "]" (str.at var20 800)))
(assert (= "]" (str.at var53 56)))
(assert (= "p" (str.at var49 949)))
(assert (= "L" (str.at var11 421)))
(assert (= "Z" (str.at var43 592)))
(assert (= "1" (str.at var10 453)))
(assert (= "1" (str.at var9 132)))
(assert (= "p" (str.at var55 918)))
(assert (= "#" (str.at var56 991)))
(assert (= "&" (str.at var14 766)))
(assert (= "9" (str.at var60 994)))
(assert (= "1" (str.at var16 389)))
(assert (= "s" (str.at var3 525)))
(assert (= "C" (str.at var9 359)))
(assert (= "8" (str.at var47 939)))
(assert (= "n" (str.at var45 705)))
(assert (= "3" (str.at var38 109)))
(assert (= "r" (str.at var21 274)))
(assert (= "." (str.at var44 726)))
(assert (= "k" (str.at var39 336)))
(assert (= "1" (str.at var23 232)))
(assert (= "N" (str.at var28 382)))
(assert (= "-" (str.at var43 171)))
(assert (= "h" (str.at var33 44)))
(assert (= "J" (str.at var23 389)))
(assert (= "L" (str.at var45 664)))
(assert (= "D" (str.at var10 46)))
(assert (= "J" (str.at var30 148)))
(assert (= "`" (str.at var5 973)))
(assert (= "a" (str.at var51 857)))
(assert (= "*" (str.at var4 754)))
(assert (= "3" (str.at var36 256)))
(assert (= "^" (str.at var3 933)))
(assert (= ")" (str.at var2 844)))
(assert (= "7" (str.at var22 933)))
(assert (= "m" (str.at var32 282)))
(assert (= "d" (str.at var12 721)))
(assert (= "e" (str.at var28 224)))
(assert (= "!" (str.at var49 189)))
(assert (= "8" (str.at var60 908)))
(assert (= "{" (str.at var7 456)))
(assert (= "X" (str.at var17 957)))
(assert (= "8" (str.at var47 38)))
(assert (= "@" (str.at var39 419)))
(assert (= "=" (str.at var47 377)))
(assert (= "R" (str.at var19 16)))
(assert (= "+" (str.at var21 354)))
(assert (= "w" (str.at var60 985)))
(assert (= "h" (str.at var23 547)))
(assert (= "O" (str.at var28 443)))
(assert (= "`" (str.at var44 378)))
(assert (= "1" (str.at var25 461)))
(assert (= "w" (str.at var46 912)))
(assert (= "`" (str.at var19 192)))
(assert (= "v" (str.at var38 564)))
(assert (= "s" (str.at var33 244)))
(assert (= "7" (str.at var3 990)))
(assert (= ">" (str.at var40 848)))
(assert (= "$" (str.at var51 96)))
(assert (= "=" (str.at var18 347)))
(assert (= "T" (str.at var19 408)))
(assert (= "!" (str.at var22 997)))
(assert (= "t" (str.at var4 766)))
(assert (= "G" (str.at var56 87)))
(assert (= "\\" (str.at var56 604)))
(assert (= "m" (str.at var15 313)))
(assert (= "~" (str.at var32 901)))
(assert (= "s" (str.at var52 685)))
(assert (= "E" (str.at var22 919)))
(assert (= "4" (str.at var17 862)))
(assert (= "k" (str.at var17 963)))
(assert (= "<" (str.at var25 991)))
(assert (= "D" (str.at var54 316)))
(assert (= "c" (str.at var52 945)))
(assert (= "e" (str.at var18 590)))
(assert (= "~" (str.at var45 539)))
(assert (= "L" (str.at var41 329)))
(assert (= "|" (str.at var27 388)))
(assert (= "d" (str.at var27 376)))
(assert (= "'" (str.at var40 872)))
(assert (= "X" (str.at var55 866)))
(assert (= "]" (str.at var26 373)))
(assert (= "F" (str.at var7 405)))
(assert (= "B" (str.at var44 548)))
(assert (= "&" (str.at var38 642)))
(assert (= "I" (str.at var27 765)))
(assert (= "I" (str.at var14 870)))
(assert (= "A" (str.at var29 453)))
(assert (= ";" (str.at var37 437)))
(assert (= "F" (str.at var60 188)))
(assert (= "]" (str.at var16 589)))
(assert (= "e" (str.at var38 139)))
(assert (= "+" (str.at var33 901)))
(assert (= "\\" (str.at var34 11)))
(assert (= "Q" (str.at var41 589)))
(assert (= "b" (str.at var6 871)))
(assert (= "O" (str.at var2 118)))
(assert (= "0" (str.at var24 630)))
(assert (= "5" (str.at var59 814)))
(assert (= "t" (str.at var56 279)))
(assert (= "q" (str.at var2 232)))
(assert (= "#" (str.at var8 324)))
(assert (= "j" (str.at var9 497)))
(assert (= "R" (str.at var48 510)))
(assert (= "," (str.at var21 587)))
(assert (= "p" (str.at var2 187)))
(assert (= "-" (str.at var49 141)))
(assert (= "N" (str.at var12 669)))
(assert (= "O" (str.at var44 612)))
(assert (= "+" (str.at var7 257)))
(assert (= "M" (str.at var29 975)))
(assert (= "v" (str.at var38 724)))
(assert (= "]" (str.at var8 314)))
(assert (= "I" (str.at var39 259)))
(assert (= "C" (str.at var24 655)))
(assert (= "=" (str.at var55 726)))
(assert (= ">" (str.at var34 403)))
(assert (= "@" (str.at var58 946)))
(assert (= "z" (str.at var22 77)))
(assert (= "0" (str.at var11 204)))
(assert (= "-" (str.at var45 261)))
(assert (= "6" (str.at var29 53)))
(assert (= "w" (str.at var34 753)))
(assert (= ")" (str.at var28 609)))
(assert (= "Q" (str.at var20 691)))
(assert (= "~" (str.at var0 147)))
(assert (= "@" (str.at var51 936)))
(assert (= "_" (str.at var11 771)))
(assert (= "l" (str.at var41 912)))
(assert (= "N" (str.at var11 460)))
(assert (= "X" (str.at var53 658)))
(assert (= "n" (str.at var46 654)))
(assert (= "u" (str.at var12 457)))
(assert (= "%" (str.at var27 39)))
(assert (= "a" (str.at var8 40)))
(assert (= "]" (str.at var26 24)))
(assert (= "g" (str.at var41 548)))
(assert (= "n" (str.at var47 220)))
(assert (= "e" (str.at var31 851)))
(assert (= "P" (str.at var6 134)))
(assert (= "j" (str.at var16 174)))
(assert (= "Q" (str.at var37 140)))
(assert (= ":" (str.at var56 534)))
(assert (= "!" (str.at var13 418)))
(assert (= "C" (str.at var13 643)))
(assert (= "H" (str.at var38 257)))
(assert (= "h" (str.at var3 112)))
(assert (= "g" (str.at var28 75)))
(assert (= "}" (str.at var37 79)))
(assert (= "U" (str.at var4 400)))
(assert (= "=" (str.at var56 726)))
(assert (= "<" (str.at var29 776)))
(assert (= "}" (str.at var36 70)))
(assert (= "i" (str.at var0 519)))
(assert (= "p" (str.at var9 765)))
(assert (= "C" (str.at var25 271)))
(assert (= ")" (str.at var40 773)))
(assert (= "Z" (str.at var1 548)))
(assert (= "6" (str.at var34 311)))
(assert (= "K" (str.at var36 979)))
(assert (= "c" (str.at var17 136)))
(assert (= "}" (str.at var26 464)))
(assert (= "v" (str.at var18 330)))
(assert (= "m" (str.at var9 310)))
(assert (= "V" (str.at var3 569)))
(assert (= "u" (str.at var17 498)))
(assert (= ")" (str.at var15 32)))
(assert (= "t" (str.at var55 893)))
(assert (= "%" (str.at var49 760)))
(assert (= "0" (str.at var26 768)))
(assert (= "[" (str.at var18 836)))
(assert (= "," (str.at var12 5)))
(assert (= "e" (str.at var60 979)))
(assert (= ";" (str.at var40 690)))
(assert (= "Y" (str.at var36 137)))
(assert (= "O" (str.at var19 89)))
(assert (= "E" (str.at var43 265)))
(assert (= "w" (str.at var4 628)))
(assert (= "/" (str.at var44 783)))
(assert (= "k" (str.at var43 925)))
(assert (= "6" (str.at var20 13)))
(assert (= "j" (str.at var6 157)))
(assert (= "7" (str.at var53 292)))
(assert (= "}" (str.at var56 819)))
(assert (= "8" (str.at var30 600)))
(assert (= ";" (str.at var34 27)))
(assert (= "{" (str.at var43 239)))
(assert (= "h" (str.at var31 683)))
(assert (= "0" (str.at var28 450)))
(assert (= "#" (str.at var39 938)))
(assert (= "6" (str.at var39 187)))
(assert (= ">" (str.at var48 502)))
(assert (= "J" (str.at var19 770)))
(assert (= "}" (str.at var18 345)))
(assert (= """" (str.at var52 42)))
(assert (= "S" (str.at var54 313)))
(assert (= "}" (str.at var54 81)))
(assert (= "." (str.at var47 955)))
(assert (= "x" (str.at var7 378)))
(assert (= "X" (str.at var2 728)))
(assert (= "Z" (str.at var34 586)))
(assert (= ";" (str.at var57 131)))
(assert (= "J" (str.at var37 728)))
(assert (= "o" (str.at var14 638)))
(assert (= "2" (str.at var22 314)))
(assert (= "(" (str.at var7 631)))
(assert (= "o" (str.at var43 215)))
(assert (= "S" (str.at var1 736)))
(assert (= """" (str.at var45 213)))
(assert (= "w" (str.at var40 709)))
(assert (= "R" (str.at var50 336)))
(assert (= "R" (str.at var23 552)))
(assert (= "M" (str.at var12 460)))
(assert (= "!" (str.at var43 577)))
(assert (= "4" (str.at var48 327)))
(assert (= "1" (str.at var11 981)))
(assert (= "0" (str.at var6 341)))
(assert (= "=" (str.at var41 29)))
(assert (= ";" (str.at var54 346)))
(assert (= "j" (str.at var28 856)))
(assert (= "h" (str.at var58 820)))
(assert (= "z" (str.at var31 448)))
(assert (= "_" (str.at var41 52)))
(assert (= "-" (str.at var6 885)))
(assert (= "E" (str.at var15 451)))
(assert (= "'" (str.at var25 630)))
(assert (= "p" (str.at var4 943)))
(assert (= ";" (str.at var8 848)))
(assert (= "[" (str.at var22 76)))
(assert (= "F" (str.at var41 928)))
(assert (= "-" (str.at var18 777)))
(assert (= "p" (str.at var46 761)))
(assert (= "V" (str.at var25 132)))
(assert (= "l" (str.at var9 254)))
(assert (= "y" (str.at var14 169)))
(assert (= "y" (str.at var30 827)))
(assert (= "e" (str.at var19 334)))
(assert (= "r" (str.at var47 996)))
(assert (= ";" (str.at var6 440)))
(assert (= ")" (str.at var30 733)))
(assert (= "k" (str.at var28 373)))
(assert (= "s" (str.at var17 790)))
(assert (= "}" (str.at var42 721)))
(assert (= "&" (str.at var32 331)))
(assert (= "O" (str.at var23 405)))
(assert (= "!" (str.at var59 265)))
(assert (= "C" (str.at var20 458)))
(assert (= "=" (str.at var50 349)))
(assert (= "a" (str.at var29 501)))
(assert (= "-" (str.at var18 230)))
(assert (= "Y" (str.at var13 162)))
(assert (= "z" (str.at var50 346)))
(assert (= "." (str.at var34 697)))
(assert (= "9" (str.at var42 337)))
(assert (= "9" (str.at var9 127)))
(assert (= "n" (str.at var19 791)))
(assert (= "v" (str.at var14 831)))
(assert (= "C" (str.at var53 141)))
(assert (= "H" (str.at var13 929)))
(assert (= ";" (str.at var36 793)))
(assert (= "I" (str.at var9 837)))
(assert (= "q" (str.at var1 31)))
(assert (= "|" (str.at var54 156)))
(assert (= "J" (str.at var10 656)))
(assert (= "d" (str.at var49 820)))
(assert (= "m" (str.at var60 888)))
(assert (= ":" (str.at var54 608)))
(assert (= "h" (str.at var12 770)))
(assert (= "|" (str.at var53 789)))
(assert (= "#" (str.at var31 413)))
(assert (= "/" (str.at var21 466)))
(assert (= ">" (str.at var2 414)))
(assert (= "V" (str.at var2 329)))
(assert (= "f" (str.at var16 555)))
(assert (= ">" (str.at var26 797)))
(assert (= "U" (str.at var37 106)))
(assert (= "q" (str.at var36 932)))
(assert (= "N" (str.at var49 309)))
(assert (= "r" (str.at var56 163)))
(assert (= "," (str.at var6 286)))
(assert (= "." (str.at var36 111)))
(assert (= "N" (str.at var31 110)))
(assert (= "=" (str.at var6 331)))
(assert (= "U" (str.at var0 810)))
(assert (= "_" (str.at var52 721)))
(assert (= "T" (str.at var12 368)))
(assert (= "w" (str.at var30 181)))
(assert (= "<" (str.at var33 57)))
(assert (= "\\" (str.at var26 225)))
(assert (= "v" (str.at var16 554)))
(assert (= "t" (str.at var26 185)))
(assert (= "=" (str.at var12 628)))
(assert (= "P" (str.at var48 668)))
(assert (= "M" (str.at var28 516)))
(assert (= "h" (str.at var0 813)))
(assert (= "Y" (str.at var54 129)))
(assert (= "w" (str.at var54 27)))
(assert (= "r" (str.at var40 882)))
(assert (= "M" (str.at var59 155)))
(assert (= "z" (str.at var10 838)))
(assert (= "t" (str.at var9 776)))
(assert (= "q" (str.at var59 733)))
(assert (= "}" (str.at var60 880)))
(assert (= "E" (str.at var46 68)))
(assert (= "$" (str.at var16 475)))
(assert (= ";" (str.at var56 820)))
(assert (= "r" (str.at var28 868)))
(assert (= "/" (str.at var28 532)))
(assert (= "S" (str.at var21 513)))
(assert (= "Z" (str.at var6 715)))
(assert (= "," (str.at var49 283)))
(assert (= "u" (str.at var4 696)))
(assert (= "o" (str.at var0 761)))
(assert (= "N" (str.at var39 996)))
(assert (= ">" (str.at var35 364)))
(assert (= "R" (str.at var21 791)))
(assert (= "E" (str.at var52 842)))
(assert (= "F" (str.at var58 495)))
(assert (= "N" (str.at var23 352)))
(assert (= "-" (str.at var26 531)))
(assert (= "_" (str.at var0 243)))
(assert (= "," (str.at var30 583)))
(assert (= "U" (str.at var22 304)))
(assert (= "6" (str.at var53 979)))
(assert (= "N" (str.at var5 766)))
(assert (= "$" (str.at var24 696)))
(assert (= "c" (str.at var48 982)))
(assert (= "<" (str.at var22 580)))
(assert (= "H" (str.at var40 404)))
(assert (= "r" (str.at var26 564)))
(assert (= "+" (str.at var36 65)))
(assert (= "Q" (str.at var42 901)))
(assert (= "9" (str.at var52 544)))
(assert (= "'" (str.at var43 31)))
(assert (= "}" (str.at var60 192)))
(assert (= "D" (str.at var34 773)))
(assert (= "<" (str.at var54 975)))
(assert (= ";" (str.at var46 550)))
(assert (= "t" (str.at var16 513)))
(assert (= "5" (str.at var43 135)))
(assert (= "T" (str.at var25 606)))
(assert (= "S" (str.at var47 979)))
(assert (= "A" (str.at var39 412)))
(assert (= "r" (str.at var60 87)))
(assert (= "v" (str.at var57 756)))
(assert (= "|" (str.at var9 558)))
(assert (= "%" (str.at var43 969)))
(assert (= "G" (str.at var46 312)))
(assert (= "$" (str.at var26 576)))
(assert (= "n" (str.at var37 590)))
(assert (= "u" (str.at var33 812)))
(assert (= "]" (str.at var18 14)))
(assert (= "a" (str.at var11 206)))
(assert (= "*" (str.at var21 138)))
(assert (= "=" (str.at var15 582)))
(assert (= "z" (str.at var40 843)))
(assert (= "j" (str.at var50 272)))
(assert (= "6" (str.at var42 398)))
(assert (= "<" (str.at var12 266)))
(assert (= "{" (str.at var55 551)))
(assert (= "f" (str.at var16 940)))
(assert (= "|" (str.at var5 829)))
(assert (= "S" (str.at var10 216)))
(assert (= "E" (str.at var37 407)))
(assert (= "-" (str.at var7 319)))
(assert (= "M" (str.at var38 507)))
(assert (= "D" (str.at var3 266)))
(assert (= "J" (str.at var47 906)))
(assert (= "m" (str.at var15 783)))
(assert (= """" (str.at var45 166)))
(assert (= "I" (str.at var57 93)))
(assert (= "O" (str.at var45 203)))
(assert (= "'" (str.at var43 214)))
(assert (= "I" (str.at var22 145)))
(assert (= "$" (str.at var25 1000)))
(assert (= "|" (str.at var46 99)))
(assert (= "w" (str.at var45 992)))
(assert (= "S" (str.at var25 87)))
(assert (= "$" (str.at var27 34)))
(assert (= "3" (str.at var23 789)))
(assert (= "S" (str.at var28 467)))
(assert (= "K" (str.at var36 964)))
(assert (= "p" (str.at var5 666)))
(assert (= "U" (str.at var33 837)))
(assert (= "1" (str.at var52 925)))
(assert (= "I" (str.at var12 179)))
(assert (= "k" (str.at var44 229)))
(assert (= "M" (str.at var50 717)))
(assert (= "r" (str.at var35 221)))
(assert (= "t" (str.at var27 176)))
(assert (= "<" (str.at var48 241)))
(assert (= "m" (str.at var17 276)))
(assert (= "<" (str.at var38 279)))
(assert (= "X" (str.at var47 140)))
(assert (= "h" (str.at var2 20)))
(assert (= "A" (str.at var3 825)))
(assert (= "r" (str.at var0 528)))
(assert (= "W" (str.at var37 791)))
(assert (= """" (str.at var48 951)))
(assert (= "X" (str.at var10 545)))
(assert (= "t" (str.at var35 537)))
(assert (= "/" (str.at var6 653)))
(assert (= "!" (str.at var7 406)))
(assert (= "5" (str.at var33 896)))
(assert (= "v" (str.at var48 589)))
(assert (= "s" (str.at var9 463)))
(assert (= "a" (str.at var32 956)))
(assert (= "u" (str.at var56 852)))
(assert (= "D" (str.at var5 581)))
(assert (= "R" (str.at var36 85)))
(assert (= "5" (str.at var60 841)))
(assert (= "&" (str.at var40 520)))
(assert (= "6" (str.at var46 624)))
(assert (= "9" (str.at var13 841)))
(assert (= "c" (str.at var33 111)))
(assert (= "+" (str.at var12 298)))
(assert (= "}" (str.at var13 122)))
(assert (= "r" (str.at var54 865)))
(assert (= "O" (str.at var10 305)))
(assert (= "D" (str.at var53 244)))
(assert (= "B" (str.at var32 336)))
(assert (= "E" (str.at var33 105)))
(assert (= "C" (str.at var44 392)))
(assert (= "2" (str.at var34 25)))
(assert (= "e" (str.at var25 503)))
(assert (= "E" (str.at var56 621)))
(assert (= "1" (str.at var13 312)))
(assert (= "b" (str.at var24 616)))
(assert (= "-" (str.at var22 359)))
(assert (= ">" (str.at var1 444)))
(assert (= "l" (str.at var40 789)))
(assert (= "W" (str.at var17 820)))
(assert (= "~" (str.at var52 448)))
(assert (= "W" (str.at var59 582)))
(assert (= "@" (str.at var7 886)))
(assert (= "e" (str.at var7 692)))
(assert (= "5" (str.at var23 675)))
(assert (= "|" (str.at var2 773)))
(assert (= "%" (str.at var18 310)))
(assert (= "^" (str.at var6 830)))
(assert (= "q" (str.at var28 935)))
(assert (= "P" (str.at var3 155)))
(assert (= "+" (str.at var12 554)))
(assert (= "|" (str.at var41 474)))
(assert (= "r" (str.at var14 572)))
(assert (= "d" (str.at var47 289)))
(assert (= "_" (str.at var1 954)))
(assert (= "o" (str.at var54 34)))
(assert (= "," (str.at var52 896)))
(assert (= "b" (str.at var49 408)))
(assert (= "R" (str.at var11 585)))
(assert (= "r" (str.at var17 794)))
(assert (= "g" (str.at var15 666)))
(assert (= "W" (str.at var11 807)))
(assert (= "=" (str.at var50 870)))
(assert (= "q" (str.at var3 678)))
(assert (= "@" (str.at var5 214)))
(assert (= "^" (str.at var4 76)))
(assert (= "[" (str.at var58 273)))
(assert (= "B" (str.at var50 484)))
(assert (= "\\" (str.at var21 967)))
(assert (= "!" (str.at var40 752)))
(assert (= "d" (str.at var60 339)))
(assert (= "a" (str.at var13 771)))
(assert (= "=" (str.at var25 408)))
(assert (= ":" (str.at var37 770)))
(assert (= "u" (str.at var12 487)))
(assert (= "u" (str.at var35 933)))
(assert (= "4" (str.at var6 569)))
(assert (= "A" (str.at var1 495)))
(assert (= "h" (str.at var51 524)))
(assert (= "9" (str.at var57 558)))
(assert (= "A" (str.at var51 808)))
(assert (= "~" (str.at var11 55)))
(assert (= "/" (str.at var23 171)))
(assert (= "x" (str.at var44 357)))
(assert (= "i" (str.at var28 906)))
(assert (= "~" (str.at var35 542)))
(assert (= "^" (str.at var52 841)))
(assert (= "I" (str.at var46 162)))
(assert (= "~" (str.at var39 450)))
(assert (= "~" (str.at var47 988)))
(assert (= "`" (str.at var50 712)))
(assert (= "!" (str.at var59 856)))
(assert (= ">" (str.at var23 670)))
(assert (= "K" (str.at var60 588)))
(assert (= "e" (str.at var1 321)))
(assert (= "~" (str.at var39 473)))
(assert (= ":" (str.at var28 1000)))
(assert (= "y" (str.at var4 465)))
(assert (= "f" (str.at var15 484)))
(assert (= "n" (str.at var40 545)))
(assert (= "4" (str.at var34 976)))
(assert (= "@" (str.at var47 632)))
(assert (= "a" (str.at var6 209)))
(assert (= "b" (str.at var0 51)))
(assert (= "q" (str.at var3 122)))
(assert (= "X" (str.at var13 356)))
(assert (= "-" (str.at var41 774)))
(assert (= "!" (str.at var11 873)))
(assert (= "G" (str.at var57 809)))
(assert (= "|" (str.at var41 655)))
(assert (= "s" (str.at var30 724)))
(assert (= "N" (str.at var28 774)))
(assert (= "z" (str.at var2 776)))
(assert (= "W" (str.at var16 897)))
(assert (= "!" (str.at var10 39)))
(assert (= "t" (str.at var47 844)))
(assert (= "D" (str.at var44 720)))
(assert (= "f" (str.at var59 948)))
(assert (= "7" (str.at var14 542)))
(assert (= "c" (str.at var58 90)))
(assert (= "X" (str.at var55 908)))
(assert (= "6" (str.at var52 90)))
(assert (= "'" (str.at var44 504)))
(assert (= "=" (str.at var58 89)))
(assert (= "1" (str.at var22 454)))
(assert (= ")" (str.at var5 434)))
(assert (= "R" (str.at var54 620)))
(assert (= "'" (str.at var42 135)))
(assert (= "Y" (str.at var57 144)))
(assert (= "l" (str.at var37 335)))
(assert (= "6" (str.at var51 880)))
(assert (= "y" (str.at var48 37)))
(assert (= "<" (str.at var31 741)))
(assert (= "{" (str.at var56 934)))
(assert (= "d" (str.at var3 986)))
(assert (= "c" (str.at var17 410)))
(assert (= "|" (str.at var55 511)))
(assert (= "c" (str.at var26 86)))
(assert (= "C" (str.at var19 405)))
(assert (= "i" (str.at var48 183)))
(assert (= "{" (str.at var7 277)))
(assert (= "`" (str.at var22 146)))
(assert (= "R" (str.at var7 750)))
(assert (= "*" (str.at var16 703)))
(assert (= "i" (str.at var16 551)))
(assert (= "3" (str.at var5 987)))
(assert (= "8" (str.at var51 940)))
(assert (= "%" (str.at var39 530)))
(assert (= "!" (str.at var46 852)))
(assert (= "r" (str.at var40 65)))
(assert (= "~" (str.at var59 324)))
(assert (= "Y" (str.at var54 965)))
(assert (= "?" (str.at var42 233)))
(assert (= "A" (str.at var31 87)))
(assert (= "2" (str.at var9 551)))
(assert (= "~" (str.at var47 435)))
(assert (= "7" (str.at var42 921)))
(assert (= "F" (str.at var11 734)))
(assert (= "[" (str.at var45 831)))
(assert (= "k" (str.at var15 827)))
(assert (= "L" (str.at var3 784)))
(assert (= "$" (str.at var42 145)))
(assert (= "-" (str.at var16 472)))
(assert (= "P" (str.at var48 991)))
(assert (= "q" (str.at var30 972)))
(assert (= "I" (str.at var5 536)))
(assert (= "C" (str.at var9 915)))
(assert (= "/" (str.at var35 64)))
(assert (= "u" (str.at var32 293)))
(assert (= "[" (str.at var17 785)))
(assert (= "b" (str.at var55 650)))
(assert (= "S" (str.at var13 66)))
(assert (= "i" (str.at var1 28)))
(assert (= "W" (str.at var26 981)))
(assert (= "u" (str.at var5 970)))
(assert (= "N" (str.at var12 866)))
(assert (= "~" (str.at var14 189)))
(assert (= "q" (str.at var7 253)))
(assert (= "!" (str.at var35 279)))
(assert (= "N" (str.at var28 946)))
(assert (= "n" (str.at var26 661)))
(assert (= "P" (str.at var48 935)))
(assert (= "@" (str.at var37 178)))
(assert (= "`" (str.at var43 4)))
(assert (= "&" (str.at var2 221)))
(assert (= ":" (str.at var18 26)))
(assert (= "[" (str.at var18 33)))
(assert (= "(" (str.at var56 518)))
(assert (= "'" (str.at var58 242)))
(assert (= "=" (str.at var10 73)))
(assert (= "[" (str.at var33 887)))
(assert (= ":" (str.at var8 771)))
(assert (= "N" (str.at var15 152)))
(assert (= "%" (str.at var9 185)))
(assert (= "V" (str.at var9 731)))
(assert (= "d" (str.at var5 304)))
(assert (= "p" (str.at var4 627)))
(assert (= "Y" (str.at var24 615)))
(assert (= "Z" (str.at var29 888)))
(assert (= "M" (str.at var34 569)))
(assert (= "i" (str.at var13 209)))
(assert (= ":" (str.at var14 916)))
(assert (= "," (str.at var19 484)))
(assert (= "." (str.at var16 252)))
(assert (= "^" (str.at var1 76)))
(assert (= """" (str.at var18 467)))
(assert (= "n" (str.at var43 790)))
(assert (= "[" (str.at var56 713)))
(assert (= "J" (str.at var14 350)))
(assert (= "z" (str.at var3 763)))
(assert (= "g" (str.at var38 292)))
(assert (= "G" (str.at var60 879)))
(assert (= "[" (str.at var1 636)))
(assert (= """" (str.at var31 457)))
(assert (= "7" (str.at var27 828)))
(assert (= "s" (str.at var18 710)))
(assert (= "y" (str.at var59 758)))
(assert (= "B" (str.at var22 53)))
(assert (= "9" (str.at var36 249)))
(assert (= "q" (str.at var6 432)))
(assert (= "z" (str.at var10 329)))
(assert (= "O" (str.at var22 394)))
(assert (= "c" (str.at var34 918)))
(assert (= "L" (str.at var28 191)))
(assert (= "!" (str.at var15 444)))
(assert (= "c" (str.at var21 412)))
(assert (= "K" (str.at var16 118)))
(assert (= "w" (str.at var48 624)))
(assert (= "." (str.at var1 177)))
(assert (= "I" (str.at var14 859)))
(assert (= "t" (str.at var2 665)))
(assert (= "q" (str.at var15 824)))
(assert (= ")" (str.at var43 568)))
(assert (= "r" (str.at var60 141)))
(assert (= ";" (str.at var54 672)))
(assert (= "x" (str.at var7 213)))
(assert (= ">" (str.at var55 467)))
(assert (= "W" (str.at var6 216)))
(assert (= "A" (str.at var49 590)))
(assert (= "." (str.at var19 480)))
(assert (= "!" (str.at var19 818)))
(assert (= "i" (str.at var0 192)))
(assert (= "6" (str.at var20 978)))
(assert (= "S" (str.at var26 926)))
(assert (= """" (str.at var14 927)))
(assert (= "2" (str.at var4 423)))
(assert (= "F" (str.at var27 51)))
(check-sat)
(get-model)